Route #1: 42 19 40 41 13
Route #2: 16 29 21 34 50 9
Route #3: 20 35 36 3 22
Route #4: 14 25
Route #5: 17 45 33 39 30 10
Route #6: 1 28 31 26 7 43 24
Route #7: 8 48 23 6
Route #8: 47 4 18
Route #9: 5 12
Route #10: 27 32 2 11
Route #11: 46 38 49 15 44 37
Cost 790.9721568818051